p cnf 12 30
8 10 -4 5 0
10 6 0
10 6 0
3 5 0
10 -11 -7 -8 4 -2 -9 -3 5 0
-2 8 -10 0
11 -7 -3 0
8 6 0
-5 -8 6 0
10 -7 0
-7 9 -12 6 0
-4 -5 1 7 0
-1 -5 -9 4 0
10 1 -3 -12 0
7 2 3 1 8 0
11 -10 -12 0
7 5 8 2 0
-3 1 -4 0
6 -5 -3 0
-3 1 2 7 0
6 -7 -8 1 -12 -11 -4 10 5 0
9 10 -6 0
-1 5 0
4 6 9 -12 0
-6 -4 -8 7 -5 10 -12 -11 9 -2 -3 1 0
-4 -10 -8 -9 0
12 -1 0
-11 -3 8 -2 -6 -7 -4 0
3 7 12 11 0
10 3 7 -11 0
